(set-logic BV)
(set-info :status unknown)
(assert
 (forall ((ez_1 (_ BitVec 1)) (ez_2 (_ BitVec 1)) (ez_3 (_ BitVec 1)) (ez_4 (_ BitVec 1)) (ez_5 (_ BitVec 1)) (ez_6 (_ BitVec 1)) (ez_7 (_ BitVec 1)) (ez_8 (_ BitVec 1)) (ez_9 (_ BitVec 1)) (ez_10 (_ BitVec 1)) (ez_11 (_ BitVec 1)) (ez_12 (_ BitVec 1)) (ez_13 (_ BitVec 1)) (ez_14 (_ BitVec 1)) (ez_15 (_ BitVec 1)) (ez_16 (_ BitVec 1)) (ez_17 (_ BitVec 1)) (ez_18 (_ BitVec 1)) (ez_19 (_ BitVec 1)) (ez_20 (_ BitVec 1)) (ez_21 (_ BitVec 1)) (ez_22 (_ BitVec 1)) (ez_23 (_ BitVec 1)) (ez_24 (_ BitVec 1)) (ez_25 (_ BitVec 1)) (ez_26 (_ BitVec 1)) (ez_27 (_ BitVec 1)) (ez_28 (_ BitVec 1)) (ez_29 (_ BitVec 1)) (ez_30 (_ BitVec 1)) (ez_31 (_ BitVec 1)) (ez_32 (_ BitVec 1)) (ez_33 (_ BitVec 1)) (ez_34 (_ BitVec 1)) (ez_35 (_ BitVec 1)) (ez_36 (_ BitVec 1)) (ez_37 (_ BitVec 1)) (ez_38 (_ BitVec 1)) (ez_39 (_ BitVec 1)) (ez_40 (_ BitVec 1)) (ez_41 (_ BitVec 1)) (ez_42 (_ BitVec 1)) (ez_43 (_ BitVec 1)) (ez_44 (_ BitVec 1)) (ez_45 (_ BitVec 1)) (ez_46 (_ BitVec 1)) (ez_47 (_ BitVec 1)) (ez_48 (_ BitVec 1)) (ez_49 (_ BitVec 1)) )(exists ((ezaux_1_49 (_ BitVec 6)) (czaux_1_49 (_ BitVec 6)) (s_1 (_ BitVec 1)) (cz_2 (_ BitVec 1)) (cz_3 (_ BitVec 1)) (cz_9 (_ BitVec 1)) (cz_10 (_ BitVec 1)) (s_2 (_ BitVec 1)) (cz_8 (_ BitVec 1)) (cz_15 (_ BitVec 1)) (cz_16 (_ BitVec 1)) (s_3 (_ BitVec 1)) (cz_4 (_ BitVec 1)) (cz_5 (_ BitVec 1)) (cz_11 (_ BitVec 1)) (cz_12 (_ BitVec 1)) (s_4 (_ BitVec 1)) (cz_17 (_ BitVec 1)) (cz_18 (_ BitVec 1)) (s_5 (_ BitVec 1)) (cz_6 (_ BitVec 1)) (cz_7 (_ BitVec 1)) (cz_13 (_ BitVec 1)) (cz_14 (_ BitVec 1)) (s_6 (_ BitVec 1)) (cz_19 (_ BitVec 1)) (cz_20 (_ BitVec 1)) (s_7 (_ BitVec 1)) (cz_1 (_ BitVec 1)) (s_8 (_ BitVec 1)) (cz_21 (_ BitVec 1)) (s_9 (_ BitVec 1)) (cz_23 (_ BitVec 1)) (cz_24 (_ BitVec 1)) (s_10 (_ BitVec 1)) (cz_22 (_ BitVec 1)) (cz_29 (_ BitVec 1)) (cz_30 (_ BitVec 1)) (s_11 (_ BitVec 1)) (cz_25 (_ BitVec 1)) (cz_26 (_ BitVec 1)) (s_12 (_ BitVec 1)) (cz_31 (_ BitVec 1)) (cz_32 (_ BitVec 1)) (s_13 (_ BitVec 1)) (cz_27 (_ BitVec 1)) (cz_28 (_ BitVec 1)) (s_14 (_ BitVec 1)) (cz_33 (_ BitVec 1)) (cz_34 (_ BitVec 1)) (s_15 (_ BitVec 1)) (s_16 (_ BitVec 1)) (cz_35 (_ BitVec 1)) (s_17 (_ BitVec 1)) (cz_37 (_ BitVec 1)) (cz_38 (_ BitVec 1)) (s_18 (_ BitVec 1)) (cz_36 (_ BitVec 1)) (cz_43 (_ BitVec 1)) (cz_44 (_ BitVec 1)) (s_19 (_ BitVec 1)) (cz_39 (_ BitVec 1)) (cz_40 (_ BitVec 1)) (s_20 (_ BitVec 1)) (cz_45 (_ BitVec 1)) (cz_46 (_ BitVec 1)) (s_21 (_ BitVec 1)) (cz_41 (_ BitVec 1)) (cz_42 (_ BitVec 1)) (s_22 (_ BitVec 1)) (cz_47 (_ BitVec 1)) (cz_48 (_ BitVec 1)) (s_23 (_ BitVec 1)) (s_24 (_ BitVec 1)) (cz_49 (_ BitVec 1)) )(let (($x579 (bvule czaux_1_49 (ite (bvule ezaux_1_49 ((_ zero_extend 4) (_ bv3 2))) ezaux_1_49 ((_ zero_extend 4) (_ bv3 2))))))
 (let (($x581 (= s_24 (bvadd cz_42 cz_49))))
 (let (($x584 (= s_23 (bvadd cz_29 cz_36))))
 (let (($x590 (and (= s_22 (bvadd cz_40 (bvadd cz_41 (bvadd cz_47 cz_48)))) (and $x584 (and $x581 $x579)))))
 (let (($x600 (and (= s_20 (bvadd cz_38 (bvadd cz_39 (bvadd cz_45 cz_46)))) (and (= s_21 (bvadd cz_34 (bvadd cz_35 (bvadd cz_41 cz_42)))) $x590))))
 (let (($x610 (and (= s_18 (bvadd cz_36 (bvadd cz_37 (bvadd cz_43 cz_44)))) (and (= s_19 (bvadd cz_32 (bvadd cz_33 (bvadd cz_39 cz_40)))) $x600))))
 (let (($x617 (= s_16 (bvadd cz_28 cz_35))))
 (let (($x618 (and $x617 (and (= s_17 (bvadd cz_30 (bvadd cz_31 (bvadd cz_37 cz_38)))) $x610))))
 (let (($x620 (= s_15 (bvadd cz_15 cz_22))))
 (let (($x626 (and (= s_14 (bvadd cz_26 (bvadd cz_27 (bvadd cz_33 cz_34)))) (and $x620 $x618))))
 (let (($x636 (and (= s_12 (bvadd cz_24 (bvadd cz_25 (bvadd cz_31 cz_32)))) (and (= s_13 (bvadd cz_20 (bvadd cz_21 (bvadd cz_27 cz_28)))) $x626))))
 (let (($x646 (and (= s_10 (bvadd cz_22 (bvadd cz_23 (bvadd cz_29 cz_30)))) (and (= s_11 (bvadd cz_18 (bvadd cz_19 (bvadd cz_25 cz_26)))) $x636))))
 (let (($x653 (= s_8 (bvadd cz_14 cz_21))))
 (let (($x654 (and $x653 (and (= s_9 (bvadd cz_16 (bvadd cz_17 (bvadd cz_23 cz_24)))) $x646))))
 (let (($x662 (and (= s_6 (bvadd cz_12 (bvadd cz_13 (bvadd cz_19 cz_20)))) (and (= s_7 (bvadd cz_1 cz_8)) $x654))))
 (let (($x672 (and (= s_4 (bvadd cz_10 (bvadd cz_11 (bvadd cz_17 cz_18)))) (and (= s_5 (bvadd cz_6 (bvadd cz_7 (bvadd cz_13 cz_14)))) $x662))))
 (let (($x682 (and (= s_2 (bvadd cz_8 (bvadd cz_9 (bvadd cz_15 cz_16)))) (and (= s_3 (bvadd cz_4 (bvadd cz_5 (bvadd cz_11 cz_12)))) $x672))))
 (let ((?x867 (bvadd cz_1 cz_2 cz_3 cz_4 cz_5 cz_6 cz_7 ez_2 ez_3 ez_4 ez_5 ez_6 ez_7)))
 (let (($x870 (= s_24 (bvadd ez_42 ez_49))))
 (let (($x872 (= s_23 (bvadd ez_29 ez_36))))
 (let (($x874 (= s_22 (bvadd ez_40 ez_41 ez_47 ez_48))))
 (let (($x876 (= s_21 (bvadd ez_34 ez_35 ez_41 ez_42))))
 (let (($x878 (= s_20 (bvadd ez_38 ez_39 ez_45 ez_46))))
 (let (($x880 (= s_19 (bvadd ez_32 ez_33 ez_39 ez_40))))
 (let (($x882 (= s_18 (bvadd ez_36 ez_37 ez_43 ez_44))))
 (let (($x884 (= s_17 (bvadd ez_30 ez_31 ez_37 ez_38))))
 (let (($x886 (= s_16 (bvadd ez_28 ez_35))))
 (let (($x888 (= s_15 (bvadd ez_15 ez_22))))
 (let (($x890 (= s_14 (bvadd ez_26 ez_27 ez_33 ez_34))))
 (let (($x892 (= s_13 (bvadd ez_20 ez_21 ez_27 ez_28))))
 (let (($x894 (= s_12 (bvadd ez_24 ez_25 ez_31 ez_32))))
 (let (($x896 (= s_11 (bvadd ez_18 ez_19 ez_25 ez_26))))
 (let (($x898 (= s_10 (bvadd ez_22 ez_23 ez_29 ez_30))))
 (let (($x900 (= s_9 (bvadd ez_16 ez_17 ez_23 ez_24))))
 (let (($x902 (= s_8 (bvadd ez_14 ez_21))))
 (let (($x904 (= s_7 (bvadd ez_1 ez_8))))
 (let (($x906 (= s_6 (bvadd ez_12 ez_13 ez_19 ez_20))))
 (let (($x908 (= s_5 (bvadd ez_6 ez_7 ez_13 ez_14))))
 (let (($x910 (= s_4 (bvadd ez_10 ez_11 ez_17 ez_18))))
 (let (($x912 (= s_3 (bvadd ez_4 ez_5 ez_11 ez_12))))
 (let (($x914 (= s_2 (bvadd ez_8 ez_9 ez_15 ez_16))))
 (let (($x916 (= s_1 (bvadd ez_2 ez_3 ez_9 ez_10))))
 (let (($x917 (and $x916 $x914 $x912 $x910 $x908 $x906 $x904 $x902 $x900 $x898 $x896 $x894 $x892 $x890 $x888 $x886 $x884 $x882 $x880 $x878 $x876 $x874 $x872 $x870 (= ez_1 ?x867))))
 (let (($x918 (and $x917 (and (= s_1 (bvadd cz_2 (bvadd cz_3 (bvadd cz_9 cz_10)))) $x682))))
 (let ((?x971 (bvadd (bvadd (bvadd (_ bv0 6) ((_ zero_extend 5) ez_1)) ((_ zero_extend 5) ez_2)) ((_ zero_extend 5) ez_3))))
 (let ((?x974 (bvadd (bvadd (bvadd ?x971 ((_ zero_extend 5) ez_4)) ((_ zero_extend 5) ez_5)) ((_ zero_extend 5) ez_6))))
 (let ((?x977 (bvadd (bvadd (bvadd ?x974 ((_ zero_extend 5) ez_7)) ((_ zero_extend 5) ez_8)) ((_ zero_extend 5) ez_9))))
 (let ((?x980 (bvadd (bvadd (bvadd ?x977 ((_ zero_extend 5) ez_10)) ((_ zero_extend 5) ez_11)) ((_ zero_extend 5) ez_12))))
 (let ((?x983 (bvadd (bvadd (bvadd ?x980 ((_ zero_extend 5) ez_13)) ((_ zero_extend 5) ez_14)) ((_ zero_extend 5) ez_15))))
 (let ((?x986 (bvadd (bvadd (bvadd ?x983 ((_ zero_extend 5) ez_16)) ((_ zero_extend 5) ez_17)) ((_ zero_extend 5) ez_18))))
 (let ((?x989 (bvadd (bvadd (bvadd ?x986 ((_ zero_extend 5) ez_19)) ((_ zero_extend 5) ez_20)) ((_ zero_extend 5) ez_21))))
 (let ((?x992 (bvadd (bvadd (bvadd ?x989 ((_ zero_extend 5) ez_22)) ((_ zero_extend 5) ez_23)) ((_ zero_extend 5) ez_24))))
 (let ((?x995 (bvadd (bvadd (bvadd ?x992 ((_ zero_extend 5) ez_25)) ((_ zero_extend 5) ez_26)) ((_ zero_extend 5) ez_27))))
 (let ((?x998 (bvadd (bvadd (bvadd ?x995 ((_ zero_extend 5) ez_28)) ((_ zero_extend 5) ez_29)) ((_ zero_extend 5) ez_30))))
 (let ((?x1001 (bvadd (bvadd (bvadd ?x998 ((_ zero_extend 5) ez_31)) ((_ zero_extend 5) ez_32)) ((_ zero_extend 5) ez_33))))
 (let ((?x1004 (bvadd (bvadd (bvadd ?x1001 ((_ zero_extend 5) ez_34)) ((_ zero_extend 5) ez_35)) ((_ zero_extend 5) ez_36))))
 (let ((?x1007 (bvadd (bvadd (bvadd ?x1004 ((_ zero_extend 5) ez_37)) ((_ zero_extend 5) ez_38)) ((_ zero_extend 5) ez_39))))
 (let ((?x1010 (bvadd (bvadd (bvadd ?x1007 ((_ zero_extend 5) ez_40)) ((_ zero_extend 5) ez_41)) ((_ zero_extend 5) ez_42))))
 (let ((?x1013 (bvadd (bvadd (bvadd ?x1010 ((_ zero_extend 5) ez_43)) ((_ zero_extend 5) ez_44)) ((_ zero_extend 5) ez_45))))
 (let ((?x1016 (bvadd (bvadd (bvadd ?x1013 ((_ zero_extend 5) ez_46)) ((_ zero_extend 5) ez_47)) ((_ zero_extend 5) ez_48))))
 (let ((?x1017 (bvadd ?x1016 ((_ zero_extend 5) ez_49))))
 (let (($x1018 (= ?x1017 ezaux_1_49)))
 (let ((?x770 (bvadd (bvadd (bvadd (_ bv0 6) ((_ zero_extend 5) cz_1)) ((_ zero_extend 5) cz_2)) ((_ zero_extend 5) cz_3))))
 (let ((?x773 (bvadd (bvadd (bvadd ?x770 ((_ zero_extend 5) cz_4)) ((_ zero_extend 5) cz_5)) ((_ zero_extend 5) cz_6))))
 (let ((?x776 (bvadd (bvadd (bvadd ?x773 ((_ zero_extend 5) cz_7)) ((_ zero_extend 5) cz_8)) ((_ zero_extend 5) cz_9))))
 (let ((?x779 (bvadd (bvadd (bvadd ?x776 ((_ zero_extend 5) cz_10)) ((_ zero_extend 5) cz_11)) ((_ zero_extend 5) cz_12))))
 (let ((?x782 (bvadd (bvadd (bvadd ?x779 ((_ zero_extend 5) cz_13)) ((_ zero_extend 5) cz_14)) ((_ zero_extend 5) cz_15))))
 (let ((?x785 (bvadd (bvadd (bvadd ?x782 ((_ zero_extend 5) cz_16)) ((_ zero_extend 5) cz_17)) ((_ zero_extend 5) cz_18))))
 (let ((?x788 (bvadd (bvadd (bvadd ?x785 ((_ zero_extend 5) cz_19)) ((_ zero_extend 5) cz_20)) ((_ zero_extend 5) cz_21))))
 (let ((?x791 (bvadd (bvadd (bvadd ?x788 ((_ zero_extend 5) cz_22)) ((_ zero_extend 5) cz_23)) ((_ zero_extend 5) cz_24))))
 (let ((?x794 (bvadd (bvadd (bvadd ?x791 ((_ zero_extend 5) cz_25)) ((_ zero_extend 5) cz_26)) ((_ zero_extend 5) cz_27))))
 (let ((?x797 (bvadd (bvadd (bvadd ?x794 ((_ zero_extend 5) cz_28)) ((_ zero_extend 5) cz_29)) ((_ zero_extend 5) cz_30))))
 (let ((?x800 (bvadd (bvadd (bvadd ?x797 ((_ zero_extend 5) cz_31)) ((_ zero_extend 5) cz_32)) ((_ zero_extend 5) cz_33))))
 (let ((?x803 (bvadd (bvadd (bvadd ?x800 ((_ zero_extend 5) cz_34)) ((_ zero_extend 5) cz_35)) ((_ zero_extend 5) cz_36))))
 (let ((?x806 (bvadd (bvadd (bvadd ?x803 ((_ zero_extend 5) cz_37)) ((_ zero_extend 5) cz_38)) ((_ zero_extend 5) cz_39))))
 (let ((?x809 (bvadd (bvadd (bvadd ?x806 ((_ zero_extend 5) cz_40)) ((_ zero_extend 5) cz_41)) ((_ zero_extend 5) cz_42))))
 (let ((?x812 (bvadd (bvadd (bvadd ?x809 ((_ zero_extend 5) cz_43)) ((_ zero_extend 5) cz_44)) ((_ zero_extend 5) cz_45))))
 (let ((?x815 (bvadd (bvadd (bvadd ?x812 ((_ zero_extend 5) cz_46)) ((_ zero_extend 5) cz_47)) ((_ zero_extend 5) cz_48))))
 (let (($x1020 (and (and $x1018 (= (bvadd ?x815 ((_ zero_extend 5) cz_49)) czaux_1_49) $x1018) (or (not (bvule ezaux_1_49 ((_ zero_extend 4) (_ bv3 2)))) $x918))))
 (or (not (bvule ?x1017 ((_ zero_extend 3) (_ bv6 3)))) $x1020)))))))))))))))))))))))))))))))))))))))))))))))))))))))))))))))))))))))))))))))))
 )
 )
(check-sat)